set VV := 0 1 2 3 4 5 6 7 ;
set VS := 0 1 2 3 4 5 6 7 8 9 10 11 12 13 14 15 16 17 18 19 20 ;
param cv := 
0 23
1 15
2 21
3 18
4 15
5 17
6 10
7 14
;
param cs := 
0 23
1 20
2 36
3 24
4 34
5 29
6 33
7 34
8 36
9 40
10 33
11 20
12 23
13 22
14 38
15 20
16 35
17 36
18 40
19 27
20 30
;
param bv:	 0 1 2 3 4 5 6 7 := 
		0 0 13 13 0 0 20 0 0 
		1 0 0 0 0 20 21 0 0 
		2 0 0 0 0 0 0 11 0 
		3 0 0 0 0 0 12 0 0 
		4 0 0 0 0 0 0 0 0 
		5 0 0 0 0 0 0 0 10 
		6 0 0 0 0 0 0 0 0 
		7 0 0 0 0 0 0 0 0 
;
param bs:	 0 1 2 3 4 5 6 7 8 9 10 11 12 13 14 15 16 17 18 19 20 := 
		0 0 0 0 0 0 0 34 0 0 0 0 0 0 28 0 25 0 0 0 0 39 
		1 0 0 0 0 0 0 0 0 0 0 0 0 0 0 0 0 33 0 0 0 0 
		2 0 0 0 0 0 0 0 0 0 0 29 0 0 0 35 0 0 23 0 34 0 
		3 0 0 0 0 0 0 0 0 0 0 0 0 0 0 0 0 32 0 0 0 0 
		4 0 0 0 0 0 0 0 24 0 33 0 0 0 0 31 0 0 0 0 0 0 
		5 0 0 0 0 0 0 0 0 0 33 0 0 0 30 0 0 0 0 0 39 0 
		6 34 0 0 0 0 0 0 0 0 0 0 0 0 0 0 0 0 0 0 0 0 
		7 0 0 0 0 24 0 0 0 0 0 0 34 0 0 0 0 0 0 0 0 0 
		8 0 0 0 0 0 0 0 0 0 0 0 0 0 0 0 0 0 26 0 0 0 
		9 0 0 0 0 33 33 0 0 0 0 0 0 0 0 0 0 0 0 0 0 0 
		10 0 0 29 0 0 0 0 0 0 0 0 0 0 0 0 39 0 36 0 29 0 
		11 0 0 0 0 0 0 0 34 0 0 0 0 0 0 37 29 0 0 0 0 0 
		12 0 0 0 0 0 0 0 0 0 0 0 0 0 0 0 39 35 0 0 0 0 
		13 28 0 0 0 0 30 0 0 0 0 0 0 0 0 0 0 0 0 0 22 0 
		14 0 0 35 0 31 0 0 0 0 0 0 37 0 0 0 0 0 0 34 0 21 
		15 25 0 0 0 0 0 0 0 0 0 39 29 39 0 0 0 0 0 28 0 0 
		16 0 33 0 32 0 0 0 0 0 0 0 0 35 0 0 0 0 0 40 0 0 
		17 0 0 23 0 0 0 0 0 26 0 36 0 0 0 0 0 0 0 0 0 0 
		18 0 0 0 0 0 0 0 0 0 0 0 0 0 0 34 28 40 0 0 0 0 
		19 0 0 34 0 0 39 0 0 0 0 29 0 0 22 0 0 0 0 0 0 0 
		20 39 0 0 0 0 0 0 0 0 0 0 0 0 0 21 0 0 0 0 0 0 
;
